data/solutions/planning/wellformed/moderate/sequential/wellformed_moderate_instance89_cplex.sol
Elapsed time: 36.69
Nodes explored: -
Nodes left: -
Relative gap: -
Upper bound: 430338.0
Lower bound: -
C[0]=6831.0
C[1]=6831.0
C[2]=6830.0
C[3]=6830.0
C[4]=6830.0
C[5]=6830.0
y[0]=3
y[1]=4
y[2]=0
y[3]=0
y[4]=5
y[5]=2
y[6]=2
y[7]=1
y[8]=4
y[9]=1
y[10]=4
y[11]=3
y[12]=2
y[13]=0
y[14]=5
y[15]=2
y[16]=3
y[17]=0
y[18]=4
y[19]=1
y[20]=3
y[21]=4
y[22]=1
y[23]=2
y[24]=2
y[25]=5
y[26]=0
y[27]=3
y[28]=0
y[29]=4
y[30]=5
y[31]=0
y[32]=1
y[33]=1
y[34]=5
y[35]=3
y[36]=1
y[37]=3
y[38]=5
y[39]=2
